400
[42,43,44,48,49,51,52,53,55,58,59,61,62,63,66,67,69,73,77,80,81,83,85,87,89,92,93,95,96,99,100,101,103,104,105,108,109,110,112,116,117,118,120,121,122,124,125,126,127,128,129,133,134,135,139,140,143,144,147,148,153,154,155,160,162,166,167,170,172,176,177,178,180,183,184,185,187,188,190,191,192,194,197,198,199,200,201,203,205,206,207,208,209,210,211,212,213,214,215,219,221,222,224,225,226,229,230,231,233,234,235,239,242,243,244,246,248,251,252,255,257,258,259,260,262,271,272,275,279,281,282,284,286,290,293,294,296,299,300,302,303,305,313,318,319]
[1,1,1,2,1,1,1,2,2,3,1,1,2,2,1,1,1,2,3,2,1,2,2,1,1,1,2,1,1,3,2,1,1,1,2,3,2,1,1,1,1,1,2,1,4,1,1,2,1,1,1,2,2,1,1,1,2,1,1,2,1,1,1,1,1,1,1,1,1,1,2,2,1,1,1,1,1,1,1,2,2,2,1,3,1,1,2,1,1,1,1,1,1,1,2,2,1,1,1,1,1,1,2,1,1,1,1,1,2,2,3,2,1,1,1,1,1,1,1,2,1,1,2,1,3,1,1,2,2,1,1,1,1,1,1,1,2,1,1,1,1,1,1,1,3]
